115
0 42 31 6 58 72 108 80 41 18 
68 46 24 40 60 86 71 8 51 25 
16 12 101 35 107 1 75 109 62 44 
4 98 92 21 74 52 3 85 54 111 
59 30 56 96 53 63 19 32 5 67 
43 64 89 29 15 61 83 106 20 95 
78 81 48 49 2 102 50 22 47 94 
7 66 114 27 88 14 57 91 79 97 
84 38 39 37 104 87 70 76 105 45 
9 110 65 10 113 55 99 11 90 13 
103 26 34 73 23 77 33 17 82 100 
69 28 93 36 112 
